2 4 9 3 0 1 5 6 3 1 7 3 8 5 1 2 6 1 4 2
8 4 4 2 3 3 1 4 7 4 9 6 2 5 6 4 0 1 5 1
7 5 4 5 2 3 9 4 3 7 8 6 5 1 6 6 1 6 0 1
1 7 6 3 0 7 5 5 8 3 2 7 3 4 7 1 4 7 9 7
8 3 9 1 4 1 3 4 7 1 2 1 6 1 5 5 0 5 1 3
5 4 4 2 1 5 0 4 2 2 6 6 7 3 3 4 8 2 9 1
6 3 5 6 4 7 7 1 3 7 1 7 8 7 9 3 2 6 0 1
7 4 8 1 2 3 6 1 9 1 5 7 1 2 3 1 0 1 4 4
6 6 7 1 5 6 1 3 2 4 4 1 0 6 8 1 3 6 9 1
7 7 5 2 0 1 2 4 3 1 9 4 4 4 1 4 6 6 8 1
